n = 89;
m = 195;
input = [|2,1,
|3,2,
|4,3,
|5,4,
|5,2,
|6,5,
|7,6,
|7,1,
|8,7,
|9,8,
|10,9,
|10,1,
|11,10,
|12,11,
|12,1,
|13,12,
|13,1,
|14,13,
|14,1,
|15,14,
|16,15,
|17,16,
|18,17,
|19,18,
|20,19,
|21,20,
|21,1,
|22,21,
|22,1,
|22,5,
|23,22,
|24,23,
|24,5,
|25,24,
|25,5,
|25,9,
|26,25,
|26,9,
|27,26,
|27,10,
|28,27,
|28,10,
|29,28,
|29,10,
|30,29,
|30,10,
|31,30,
|31,10,
|31,20,
|32,31,
|32,10,
|32,18,
|32,19,
|32,20,
|33,32,
|33,10,
|33,11,
|34,33,
|34,11,
|34,18,
|35,34,
|35,11,
|35,18,
|36,35,
|37,11,
|37,12,
|37,16,
|38,37,
|38,13,
|38,15,
|38,16,
|39,37,
|39,16,
|40,39,
|40,16,
|41,40,
|41,17,
|42,41,
|42,16,
|42,17,
|43,42,
|43,16,
|43,17,
|44,40,
|44,17,
|44,39,
|45,44,
|45,17,
|46,45,
|46,17,
|47,46,
|47,36,
|48,47,
|48,37,
|49,48,
|49,37,
|50,49,
|50,37,
|50,44,
|50,45,
|50,46,
|50,48,
|51,36,
|51,17,
|51,35,
|52,34,
|52,32,
|53,52,
|53,18,
|53,32,
|54,52,
|54,34,
|55,31,
|55,20,
|55,28,
|55,30,
|56,55,
|56,20,
|56,21,
|56,22,
|57,56,
|57,21,
|58,57,
|58,20,
|59,58,
|59,20,
|59,21,
|60,56,
|60,22,
|61,60,
|61,23,
|61,56,
|62,56,
|62,23,
|62,25,
|62,28,
|63,9,
|63,6,
|63,8,
|64,8,
|64,6,
|64,7,
|65,16,
|65,1,
|66,9,
|67,66,
|68,67,
|68,9,
|69,68,
|69,66,
|69,67,
|70,9,
|70,68,
|70,67,
|70,66,
|70,5,
|71,38,
|71,13,
|72,43,
|72,16,
|73,72,
|73,16,
|73,43,
|74,32,
|74,19,
|75,31,
|75,30,
|76,54,
|76,32,
|77,37,
|77,36,
|78,77,
|78,36,
|78,37,
|79,78,
|79,36,
|79,37,
|80,61,
|80,56,
|82,81,
|82,1,
|82,7,
|82,5,
|82,4,
|83,3,
|83,2,
|84,83,
|85,84,
|85,81,
|85,82,
|85,83,
|86,14,
|87,19,
|88,77,
|89,78|];